229527.65,20.2,22.13
223814.5,20.72,22.7
220127.89,21.07,23.08
206213.82,22.49,24.63
205972.35,22.51,24.66
205928.5,22.52,24.67
217427.22,21.33,23.36
212096.71,21.86,23.95
216017.02,21.47,23.51
222110.3,20.88,22.87
215044.81,21.56,23.62
205873.32,22.52,24.67
219493.76,21.13,23.14
218307.02,21.24,23.27
229981.76,20.16,22.09
214286.51,21.64,23.7
211573.73,21.92,24.01
224337.85,20.67,22.64
211950.94,21.88,23.97
217206.99,21.35,23.39
